p tw 70 9451 2 
1 3 
1 4 
1 5 
1 6 
1 7 
1 8 
1 9 
1 10 
1 11 
1 12 
1 13 
1 14 
1 15 
1 16 
1 17 
1 18 
1 19 
1 24 
1 31 
1 37 
1 44 
1 47 
1 63 
1 64 
1 65 
1 66 
2 3 
2 4 
2 5 
2 6 
2 7 
2 8 
2 9 
2 10 
2 11 
2 19 
2 20 
2 21 
2 22 
2 23 
2 24 
2 25 
2 26 
2 27 
2 29 
2 39 
2 50 
2 53 
2 55 
2 61 
2 66 
2 69 
3 4 
3 5 
3 6 
3 7 
3 8 
3 9 
3 10 
3 12 
3 18 
3 20 
3 27 
3 28 
3 29 
3 30 
3 31 
3 32 
3 33 
3 34 
3 38 
3 43 
3 48 
3 53 
3 56 
3 63 
3 67 
4 5 
4 6 
4 7 
4 8 
4 9 
4 10 
4 13 
4 16 
4 21 
4 26 
4 28 
4 33 
4 35 
4 36 
4 37 
4 38 
4 39 
4 40 
4 44 
4 49 
4 54 
4 60 
4 67 
4 69 
5 6 
5 7 
5 8 
5 9 
5 10 
5 13 
5 14 
5 22 
5 27 
5 29 
5 34 
5 35 
5 41 
5 42 
5 43 
5 44 
5 45 
5 49 
5 51 
5 58 
5 62 
5 66 
5 68 
6 7 
6 8 
6 9 
6 10 
6 12 
6 15 
6 20 
6 23 
6 36 
6 40 
6 41 
6 42 
6 46 
6 47 
6 48 
6 49 
6 50 
6 60 
6 61 
6 63 
6 68 
6 70 
7 8 
7 9 
7 10 
7 15 
7 19 
7 21 
7 22 
7 30 
7 34 
7 37 
7 41 
7 46 
7 51 
7 52 
7 53 
7 54 
7 57 
7 59 
7 65 
7 67 
7 70 
8 9 
8 10 
8 16 
8 18 
8 24 
8 26 
8 28 
8 32 
8 35 
8 42 
8 46 
8 47 
8 52 
8 55 
8 56 
8 57 
8 58 
8 59 
8 61 
8 62 
9 10 
9 11 
9 17 
9 25 
9 31 
9 32 
9 36 
9 39 
9 43 
9 45 
9 48 
9 51 
9 54 
9 55 
9 57 
9 59 
9 60 
9 64 
9 68 
10 14 
10 17 
10 23 
10 25 
10 30 
10 33 
10 38 
10 40 
10 45 
10 50 
10 52 
10 56 
10 58 
10 62 
10 64 
10 65 
10 69 
10 70 
11 12 
11 13 
11 14 
11 15 
11 16 
11 17 
11 18 
11 19 
11 20 
11 21 
11 22 
11 23 
11 24 
11 25 
11 26 
11 27 
11 32 
11 39 
11 45 
11 48 
11 54 
11 57 
11 64 
11 68 
12 13 
12 14 
12 15 
12 16 
12 17 
12 18 
12 19 
12 20 
12 23 
12 28 
12 29 
12 30 
12 31 
12 32 
12 33 
12 34 
12 36 
12 41 
12 46 
12 47 
12 48 
12 49 
12 50 
13 14 
13 15 
13 16 
13 17 
13 18 
13 19 
13 21 
13 27 
13 28 
13 34 
13 35 
13 36 
13 37 
13 38 
13 39 
13 40 
13 49 
13 51 
13 58 
13 62 
13 66 
13 68 
14 15 
14 16 
14 17 
14 18 
14 19 
14 22 
14 25 
14 29 
14 33 
14 35 
14 38 
14 41 
14 42 
14 43 
14 44 
14 45 
14 50 
14 52 
14 58 
14 64 
14 70 
15 16 
15 17 
15 18 
15 19 
15 20 
15 22 
15 30 
15 37 
15 40 
15 42 
15 46 
15 51 
15 52 
15 53 
15 54 
15 60 
15 61 
15 63 
15 68 
15 70 
16 17 
16 18 
16 19 
16 24 
16 26 
16 28 
16 33 
16 42 
16 44 
16 46 
16 49 
16 54 
16 55 
16 56 
16 57 
16 58 
16 60 
16 67 
16 69 
17 18 
17 19 
17 23 
17 25 
17 30 
17 31 
17 36 
17 40 
17 43 
17 45 
17 51 
17 55 
17 56 
17 59 
17 60 
17 62 
17 65 
17 69 
18 19 
18 26 
18 27 
18 32 
18 35 
18 38 
18 43 
18 47 
18 48 
18 52 
18 53 
18 56 
18 59 
18 61 
18 62 
18 63 
18 67 
19 21 
19 29 
19 34 
19 39 
19 41 
19 50 
19 53 
19 55 
19 57 
19 59 
19 61 
19 65 
19 66 
19 67 
19 69 
19 70 
20 21 
20 22 
20 23 
20 24 
20 25 
20 26 
20 27 
20 28 
20 29 
20 30 
20 31 
20 32 
20 33 
20 34 
20 40 
20 42 
20 60 
20 61 
20 63 
20 68 
20 70 
21 22 
21 23 
21 24 
21 25 
21 26 
21 27 
21 28 
21 34 
21 35 
21 36 
21 37 
21 38 
21 39 
21 40 
21 41 
21 57 
21 59 
21 65 
21 67 
21 70 
22 23 
22 24 
22 25 
22 26 
22 27 
22 29 
22 30 
22 35 
22 37 
22 41 
22 42 
22 43 
22 44 
22 45 
22 46 
22 51 
22 52 
22 53 
22 54 
23 24 
23 25 
23 26 
23 27 
23 30 
23 36 
23 40 
23 41 
23 45 
23 46 
23 47 
23 48 
23 49 
23 50 
23 56 
23 62 
23 65 
23 69 
24 25 
24 26 
24 27 
24 28 
24 31 
24 37 
24 42 
24 44 
24 46 
24 47 
24 55 
24 56 
24 57 
24 58 
24 63 
24 64 
24 65 
24 66 
25 26 
25 27 
25 31 
25 33 
25 36 
25 38 
25 43 
25 50 
25 51 
25 52 
25 55 
25 58 
25 59 
25 60 
25 64 
25 70 
26 27 
26 32 
26 33 
26 35 
26 44 
26 47 
26 49 
26 52 
26 54 
26 59 
26 60 
26 61 
26 62 
26 67 
26 69 
27 34 
27 38 
27 43 
27 48 
27 49 
27 51 
27 53 
27 56 
27 58 
27 62 
27 63 
27 66 
27 67 
27 68 
28 29 
28 30 
28 31 
28 32 
28 33 
28 34 
28 35 
28 36 
28 37 
28 38 
28 39 
28 40 
28 42 
28 46 
28 55 
28 56 
28 57 
28 58 
29 30 
29 31 
29 32 
29 33 
29 34 
29 35 
29 39 
29 41 
29 42 
29 43 
29 44 
29 45 
29 50 
29 53 
29 55 
29 61 
29 66 
29 69 
30 31 
30 32 
30 33 
30 34 
30 37 
30 40 
30 45 
30 46 
30 51 
30 52 
30 53 
30 54 
30 56 
30 62 
30 65 
30 69 
31 32 
31 33 
31 34 
31 36 
31 37 
31 43 
31 44 
31 47 
31 51 
31 55 
31 59 
31 60 
31 63 
31 64 
31 65 
31 66 
32 33 
32 34 
32 35 
32 39 
32 45 
32 47 
32 48 
32 52 
32 54 
32 57 
32 59 
32 61 
32 62 
32 64 
32 68 
33 34 
33 38 
33 44 
33 49 
33 50 
33 52 
33 54 
33 58 
33 60 
33 64 
33 67 
33 69 
33 70 
34 41 
34 49 
34 51 
34 57 
34 58 
34 59 
34 62 
34 65 
34 66 
34 67 
34 68 
34 70 
35 36 
35 37 
35 38 
35 39 
35 40 
35 41 
35 42 
35 43 
35 44 
35 45 
35 47 
35 52 
35 59 
35 61 
35 62 
36 37 
36 38 
36 39 
36 40 
36 41 
36 43 
36 46 
36 47 
36 48 
36 49 
36 50 
36 51 
36 55 
36 59 
36 60 
37 38 
37 39 
37 40 
37 44 
37 46 
37 47 
37 51 
37 52 
37 53 
37 54 
37 63 
37 64 
37 65 
37 66 
38 39 
38 40 
38 43 
38 48 
38 50 
38 52 
38 53 
38 56 
38 58 
38 63 
38 64 
38 67 
38 70 
39 40 
39 45 
39 48 
39 50 
39 53 
39 54 
39 55 
39 57 
39 61 
39 64 
39 66 
39 68 
39 69 
40 42 
40 45 
40 56 
40 60 
40 61 
40 62 
40 63 
40 65 
40 68 
40 69 
40 70 
41 42 
41 43 
41 44 
41 45 
41 46 
41 47 
41 48 
41 49 
41 50 
41 57 
41 59 
41 65 
41 67 
41 70 
42 43 
42 44 
42 45 
42 46 
42 55 
42 56 
42 57 
42 58 
42 60 
42 61 
42 63 
42 68 
42 70 
43 44 
43 45 
43 48 
43 51 
43 53 
43 55 
43 56 
43 59 
43 60 
43 63 
43 67 
44 45 
44 47 
44 49 
44 54 
44 60 
44 63 
44 64 
44 65 
44 66 
44 67 
44 69 
45 48 
45 54 
45 56 
45 57 
45 62 
45 64 
45 65 
45 68 
45 69 
46 47 
46 48 
46 49 
46 50 
46 51 
46 52 
46 53 
46 54 
46 55 
46 56 
46 57 
46 58 
47 48 
47 49 
47 50 
47 52 
47 59 
47 61 
47 62 
47 63 
47 64 
47 65 
47 66 
48 49 
48 50 
48 53 
48 54 
48 56 
48 57 
48 63 
48 64 
48 67 
48 68 
49 50 
49 51 
49 54 
49 58 
49 60 
49 62 
49 66 
49 67 
49 68 
49 69 
50 52 
50 53 
50 55 
50 58 
50 61 
50 64 
50 66 
50 69 
50 70 
51 52 
51 53 
51 54 
51 55 
51 58 
51 59 
51 60 
51 62 
51 66 
51 68 
52 53 
52 54 
52 58 
52 59 
52 61 
52 62 
52 64 
52 70 
53 54 
53 55 
53 56 
53 61 
53 63 
53 66 
53 67 
53 69 
54 57 
54 60 
54 64 
54 67 
54 68 
54 69 
55 56 
55 57 
55 58 
55 59 
55 60 
55 61 
55 66 
55 69 
56 57 
56 58 
56 62 
56 63 
56 65 
56 67 
56 69 
57 58 
57 59 
57 64 
57 65 
57 67 
57 68 
57 70 
58 62 
58 64 
58 66 
58 68 
58 70 
59 60 
59 61 
59 62 
59 65 
59 67 
59 70 
60 61 
60 63 
60 67 
60 68 
60 69 
60 70 
61 62 
61 63 
61 66 
61 68 
61 69 
61 70 
62 65 
62 66 
62 68 
62 69 
63 64 
63 65 
63 66 
63 67 
63 68 
63 70 
64 65 
64 66 
64 68 
64 70 
65 66 
65 67 
65 69 
65 70 
66 68 
66 69 
67 69 
67 70 
68 70 
